(set-info :status unknown)
(declare-fun %Y () (_ BitVec 32))
(declare-fun %X () (_ BitVec 32))
(assert
 (let (($x9571 (and (distinct (bvurem ((_ zero_extend 29) %X) ((_ zero_extend 29) %Y)) ((_ zero_extend 29) (bvurem %X %Y))) true)))
 (and (and (distinct ((_ zero_extend 29) %Y) (_ bv0 61)) true) $x9571)))
(check-sat)
